language ESSENCE' 1.0

letting jobs = 102
letting horizon = 817
letting resourcesRenew = 2
letting resourcesNonrenew = 2
letting resourceLimits = [57, 59, 581, 576]
letting successors = [[2, 3, 4, 5, 6, 7, 8, 10, 11, 12, 13, 14, 15, 16, 19, 21, 22, 24, 25, 27, 29], [52, 38, 31, 30, 26, 20, 17, 9], [52, 51, 43, 39, 36, 32, 31, 23, 17], [52, 43, 36, 31, 28, 20, 17], [62, 57, 53, 47, 45, 44, 43, 41, 40, 39, 38, 37, 36, 35, 34, 32, 31], [57, 55, 53, 52, 51, 47, 46, 45, 44, 42, 41, 40, 39, 36, 33, 32], [53, 47, 45, 44, 42, 37, 35, 32, 31, 18], [73, 57, 51, 50, 44, 43, 37, 36, 31, 20], [53, 50, 47, 45, 43, 33, 32, 18], [53, 52, 45, 44, 35, 33, 32, 18], [57, 51, 46, 45, 44, 40, 39, 37, 36, 34, 33, 32, 31], [39, 36, 35, 33, 32, 28, 23], [62, 58, 50, 45, 44, 18], [62, 59, 55, 53, 45, 43, 41, 40, 39, 36, 35, 34], [76, 73, 62, 58, 53, 51, 47, 43, 40, 37, 36], [73, 67, 53, 51, 50, 49, 40, 39, 37, 33], [58, 57, 56, 55, 53, 49, 48, 47, 45, 44, 42, 33], [73, 57, 56, 54, 51, 48, 46, 41, 40, 39, 36], [71, 62, 53, 51, 48, 46, 44, 42, 36, 31], [53, 49, 46, 42, 40, 39, 33, 32], [83, 73, 72, 67, 61, 59, 58, 52, 49, 48, 47, 35, 33], [62, 58, 57, 56, 51, 49, 48, 44, 42, 40, 39, 34], [76, 67, 62, 59, 58, 57, 54, 53, 49, 48, 46, 40, 38], [72, 71, 67, 57, 56, 55, 54, 53, 49, 48, 44, 42, 39], [76, 73, 72, 71, 70, 57, 56, 54, 51, 50, 49, 48, 42], [71, 68, 61, 57, 56, 51, 48, 36, 34], [72, 67, 56, 50, 48, 39, 33], [78, 76, 73, 70, 67, 66, 65, 64, 63, 62, 61, 60, 59, 56, 40], [83, 71, 70, 68, 67, 65, 63, 62, 60, 57, 56, 54, 51, 49], [75, 70, 63, 59, 56, 49, 48, 44], [101, 83, 76, 72, 70, 68, 65, 61, 60, 56, 54, 49], [99, 78, 72, 71, 68, 66, 63, 61, 59, 58, 56, 48], [101, 100, 76, 74, 71, 70, 69, 68, 65, 64, 62, 60, 54], [100, 97, 96, 77, 74, 72, 70, 69, 64, 63, 54], [99, 81, 77, 76, 75, 74, 68, 65, 63, 60, 56], [83, 82, 70, 69, 67, 66, 65, 60, 49], [101, 99, 70, 68, 66, 56, 48], [101, 96, 83, 81, 77, 74, 70, 68, 64, 60, 56], [83, 82, 81, 77, 74, 69, 68, 66, 65, 64, 63], [101, 100, 99, 96, 95, 92, 83, 82, 81, 74, 72, 71, 69, 68], [100, 99, 98, 97, 81, 80, 78, 76, 70, 69, 66, 63, 61], [100, 98, 96, 83, 80, 77, 69, 68, 66, 64, 63, 60], [101, 100, 97, 95, 92, 83, 82, 78, 75, 66, 65, 64], [100, 95, 92, 83, 78, 76, 74, 68, 66, 65, 64], [101, 83, 81, 78, 76, 74, 73, 70, 68, 66, 60], [101, 100, 98, 97, 96, 95, 92, 82, 77, 74, 69, 66, 64], [100, 99, 98, 78, 77, 74, 68, 63, 60], [100, 92, 82, 81, 77, 74, 69, 65, 60], [100, 98, 97, 96, 95, 92, 91, 87, 77, 74, 64], [100, 98, 96, 95, 92, 91, 87, 85, 79, 78, 74, 68], [97, 95, 93, 89, 81, 80, 78, 77, 69, 59], [99, 98, 97, 94, 93, 90, 89, 82, 81, 80, 75, 69], [99, 95, 94, 93, 91, 80, 75, 70, 61], [93, 92, 89, 82, 81, 80, 79, 78, 75, 66], [98, 97, 96, 95, 92, 85, 81, 79, 76, 74], [100, 98, 97, 95, 94, 93, 89, 82, 80, 69], [101, 97, 96, 95, 92, 89, 82, 80, 69], [101, 90, 81, 80, 70, 60], [96, 92, 91, 90, 88, 87, 86, 85, 79], [95, 91, 89, 88, 87, 86, 85, 79], [96, 92, 90, 89, 87, 86, 85, 79], [93, 85, 80, 79, 77], [101, 95, 94, 93, 92, 90, 87, 85], [99, 93, 90, 89, 86, 85, 79], [98, 96, 94, 91, 89, 84, 80], [94, 91, 90, 88, 86, 85], [97, 84, 81, 80], [97, 93, 89, 88, 84], [91, 87, 86, 79], [92, 87, 85, 79], [93, 87, 85, 79], [98, 91, 89, 85], [96, 92, 85, 84], [94, 90, 80], [87, 86, 84], [89, 87, 84], [90, 86], [90, 86], [84], [88], [86], [85], [84], [102], [102], [102], [102], [102], [102], [102], [102], [102], [102], [102], [102], [102], [102], [102], [102], [102], [102], []]
letting durations = [[0], [3, 8, 10], [1, 2, 10], [4, 5, 6], [5, 6, 10], [2, 6, 8], [1, 2, 5], [3, 4, 5], [3, 8, 9], [1, 2, 6], [2, 3, 4], [6, 7, 10], [1, 5, 8], [2, 4, 10], [1, 7, 8], [2, 3, 6], [7, 8, 9], [1, 2, 6], [4, 5, 6], [3, 6, 9], [7, 9, 10], [3, 4, 7], [1, 2, 10], [1, 7, 8], [3, 4, 6], [2, 5, 8], [4, 9, 10], [2, 3, 5], [2, 7, 8], [1, 8, 9], [7, 8, 10], [3, 8, 9], [4, 5, 7], [5, 9, 10], [3, 4, 8], [1, 7, 8], [6, 7, 10], [4, 9, 10], [1, 4, 10], [5, 7, 8], [7, 8, 9], [3, 7, 10], [7, 8, 9], [2, 4, 5], [3, 4, 5], [2, 6, 8], [2, 4, 5], [2, 3, 9], [6, 7, 9], [2, 6, 7], [1, 7, 10], [3, 7, 8], [2, 8, 9], [8, 9, 10], [1, 5, 6], [3, 4, 6], [7, 9, 10], [1, 6, 10], [2, 5, 9], [2, 3, 7], [5, 7, 10], [2, 5, 10], [4, 5, 6], [4, 6, 8], [1, 5, 10], [2, 4, 10], [2, 4, 8], [6, 8, 9], [2, 6, 7], [2, 7, 8], [1, 2, 6], [2, 3, 10], [3, 6, 8], [2, 5, 10], [1, 4, 6], [5, 7, 8], [2, 4, 7], [1, 6, 7], [1, 3, 10], [6, 7, 8], [8, 9, 10], [5, 6, 7], [1, 9, 10], [1, 4, 10], [4, 5, 9], [3, 8, 10], [2, 5, 6], [2, 4, 10], [7, 9, 10], [1, 2, 4], [8, 9, 10], [1, 2, 4], [3, 8, 10], [2, 4, 7], [4, 7, 10], [2, 4, 7], [2, 3, 6], [1, 6, 9], [1, 8, 10], [4, 6, 7], [5, 6, 8], [0]]
letting resourceUsage = [[[0, 0, 0, 0]], [[4, 4, 7, 8], [2, 4, 6, 8], [2, 4, 6, 6]], [[4, 5, 2, 3], [3, 3, 2, 3], [3, 2, 2, 2]], [[4, 4, 5, 4], [4, 4, 5, 3], [4, 3, 3, 3]], [[4, 2, 8, 6], [3, 2, 4, 5], [2, 2, 3, 4]], [[2, 4, 8, 6], [2, 3, 6, 5], [1, 2, 6, 5]], [[3, 3, 3, 6], [3, 3, 2, 4], [3, 3, 1, 4]], [[4, 4, 6, 7], [4, 4, 6, 4], [4, 4, 3, 3]], [[2, 3, 9, 3], [2, 2, 5, 1], [1, 2, 4, 1]], [[3, 3, 4, 5], [3, 2, 4, 5], [1, 2, 3, 2]], [[3, 5, 5, 4], [3, 2, 4, 2], [2, 1, 3, 1]], [[5, 2, 6, 5], [5, 2, 6, 4], [5, 2, 6, 2]], [[5, 5, 6, 9], [3, 4, 5, 4], [3, 4, 2, 3]], [[3, 3, 10, 4], [3, 3, 8, 3], [3, 3, 7, 3]], [[5, 4, 6, 6], [5, 3, 4, 5], [5, 2, 4, 3]], [[3, 3, 7, 8], [3, 3, 6, 6], [3, 1, 5, 6]], [[3, 4, 7, 8], [3, 4, 4, 7], [2, 3, 1, 6]], [[1, 1, 4, 9], [1, 1, 2, 7], [1, 1, 1, 4]], [[3, 4, 8, 10], [3, 4, 7, 8], [3, 4, 6, 6]], [[4, 4, 3, 7], [2, 4, 1, 6], [2, 4, 1, 5]], [[3, 4, 6, 10], [2, 4, 6, 8], [2, 4, 6, 7]], [[4, 3, 5, 7], [3, 3, 3, 7], [1, 3, 3, 6]], [[4, 5, 10, 7], [2, 4, 10, 7], [2, 4, 10, 6]], [[3, 4, 8, 7], [3, 3, 8, 7], [3, 3, 8, 6]], [[3, 3, 9, 5], [3, 2, 8, 4], [3, 2, 6, 2]], [[3, 3, 3, 8], [3, 2, 1, 4], [3, 2, 1, 3]], [[5, 4, 10, 10], [2, 3, 6, 7], [1, 3, 6, 4]], [[5, 4, 6, 6], [5, 4, 5, 6], [5, 4, 3, 6]], [[2, 5, 7, 7], [2, 4, 3, 6], [2, 2, 2, 2]], [[4, 5, 4, 10], [4, 4, 2, 7], [3, 3, 1, 7]], [[2, 4, 8, 6], [2, 3, 8, 6], [2, 3, 7, 6]], [[3, 4, 7, 7], [2, 4, 6, 5], [2, 3, 6, 4]], [[3, 4, 3, 7], [3, 4, 3, 4], [3, 4, 3, 3]], [[5, 3, 8, 4], [5, 1, 7, 3], [5, 1, 4, 1]], [[4, 4, 8, 9], [4, 4, 6, 9], [4, 4, 4, 9]], [[4, 4, 5, 8], [3, 4, 5, 7], [1, 3, 4, 7]], [[5, 5, 8, 9], [3, 4, 5, 9], [3, 4, 4, 9]], [[3, 2, 8, 1], [3, 1, 8, 1], [3, 1, 7, 1]], [[2, 1, 4, 9], [2, 1, 4, 7], [2, 1, 3, 5]], [[4, 5, 9, 5], [4, 3, 7, 4], [2, 1, 6, 1]], [[4, 5, 8, 4], [3, 3, 7, 3], [3, 1, 7, 2]], [[4, 4, 8, 4], [3, 3, 6, 2], [3, 2, 4, 2]], [[5, 3, 6, 4], [3, 1, 6, 4], [3, 1, 5, 4]], [[2, 4, 6, 7], [1, 3, 3, 5], [1, 2, 2, 4]], [[3, 3, 10, 7], [3, 2, 10, 3], [3, 2, 10, 2]], [[3, 5, 8, 9], [3, 3, 6, 6], [3, 3, 5, 5]], [[5, 5, 9, 5], [4, 4, 6, 3], [3, 4, 5, 2]], [[4, 4, 5, 3], [3, 4, 5, 3], [3, 4, 3, 2]], [[3, 3, 6, 2], [2, 3, 5, 1], [2, 2, 2, 1]], [[4, 3, 8, 3], [4, 2, 3, 2], [3, 2, 2, 1]], [[4, 2, 2, 8], [3, 1, 1, 3], [1, 1, 1, 1]], [[5, 4, 8, 7], [4, 2, 5, 5], [4, 1, 2, 4]], [[4, 4, 3, 6], [2, 4, 3, 5], [2, 4, 3, 4]], [[4, 5, 8, 2], [4, 3, 8, 2], [4, 1, 6, 2]], [[2, 5, 10, 3], [1, 4, 10, 3], [1, 3, 10, 3]], [[5, 5, 7, 3], [2, 5, 5, 3], [2, 5, 4, 3]], [[3, 5, 8, 10], [2, 4, 8, 8], [2, 3, 8, 8]], [[3, 5, 8, 5], [2, 3, 4, 4], [2, 3, 2, 4]], [[4, 3, 7, 5], [4, 2, 7, 4], [4, 2, 7, 1]], [[4, 3, 8, 9], [2, 3, 6, 8], [1, 1, 5, 8]], [[4, 4, 4, 4], [3, 2, 4, 3], [3, 1, 3, 2]], [[2, 3, 5, 6], [2, 3, 4, 6], [2, 3, 3, 3]], [[4, 5, 7, 7], [4, 4, 5, 7], [4, 2, 4, 7]], [[3, 5, 4, 7], [2, 4, 3, 6], [1, 3, 3, 5]], [[3, 4, 1, 10], [1, 3, 1, 8], [1, 2, 1, 8]], [[4, 5, 10, 9], [4, 3, 5, 5], [2, 3, 4, 3]], [[3, 4, 9, 7], [3, 3, 9, 5], [2, 2, 8, 5]], [[2, 1, 7, 8], [1, 1, 6, 5], [1, 1, 6, 3]], [[4, 4, 5, 8], [4, 3, 2, 5], [4, 2, 1, 1]], [[5, 1, 5, 5], [2, 1, 5, 4], [1, 1, 5, 4]], [[4, 3, 6, 4], [2, 2, 5, 4], [2, 2, 2, 3]], [[4, 3, 9, 5], [4, 3, 8, 3], [3, 3, 8, 3]], [[2, 3, 9, 10], [2, 2, 6, 10], [2, 1, 5, 10]], [[3, 4, 8, 8], [3, 3, 8, 7], [1, 2, 8, 6]], [[4, 2, 7, 8], [2, 2, 7, 8], [2, 2, 6, 5]], [[1, 4, 7, 8], [1, 3, 6, 8], [1, 3, 4, 7]], [[4, 4, 7, 3], [4, 3, 3, 3], [4, 3, 2, 1]], [[4, 2, 2, 6], [4, 1, 1, 5], [4, 1, 1, 4]], [[3, 3, 3, 8], [3, 2, 2, 8], [2, 2, 2, 8]], [[2, 2, 3, 2], [2, 1, 2, 1], [2, 1, 1, 1]], [[4, 1, 9, 10], [3, 1, 8, 9], [2, 1, 8, 8]], [[1, 4, 9, 9], [1, 4, 7, 9], [1, 4, 7, 8]], [[2, 3, 8, 3], [1, 1, 7, 2], [1, 1, 7, 1]], [[3, 3, 7, 5], [3, 3, 6, 3], [2, 3, 6, 3]], [[5, 3, 8, 7], [4, 3, 5, 4], [3, 2, 2, 3]], [[4, 5, 3, 7], [2, 4, 2, 6], [2, 3, 1, 6]], [[5, 4, 6, 8], [4, 4, 4, 5], [3, 4, 2, 5]], [[2, 1, 4, 5], [2, 1, 3, 3], [1, 1, 3, 2]], [[3, 4, 7, 5], [3, 2, 6, 2], [1, 2, 4, 1]], [[4, 5, 3, 8], [2, 4, 3, 6], [2, 4, 1, 5]], [[4, 4, 7, 7], [4, 4, 6, 6], [3, 2, 4, 2]], [[4, 2, 3, 8], [4, 1, 2, 8], [3, 1, 2, 8]], [[5, 1, 4, 9], [5, 1, 3, 7], [5, 1, 2, 6]], [[2, 5, 7, 7], [1, 4, 6, 7], [1, 4, 4, 1]], [[4, 4, 3, 7], [2, 3, 3, 6], [1, 2, 3, 5]], [[4, 5, 7, 6], [3, 2, 6, 6], [3, 1, 4, 6]], [[2, 5, 8, 2], [2, 3, 6, 1], [2, 3, 2, 1]], [[5, 3, 5, 9], [4, 3, 4, 5], [2, 2, 1, 4]], [[5, 4, 8, 1], [4, 3, 4, 1], [4, 3, 1, 1]], [[5, 3, 4, 3], [4, 2, 4, 3], [4, 1, 3, 2]], [[3, 4, 9, 10], [3, 4, 9, 7], [3, 2, 9, 3]], [[0, 0, 0, 0]]]
